50
    1   961   937
    2   292   253
    3   639   675
    4   778   772
    5   214   165
    6   273   219
    7   181   254
    8   953   957
    9   283   326
   10   891   867
   11   399   357
   12     1    68
   13     1    53
   14   287   317
   15   113    94
   16   143   214
   17   937   958
   18   614   593
   19   881   938
   20   860   815
   21   483   470
   22   625   545
   23   187   205
   24   202   232
   25   616   638
   26   855   921
   27    81    35
   28   649   665
   29   156   183
   30     1    16
   31   756   803
   32   827   829
   33   525   477
   34   502   598
   35   226   301
   36   187   210
   37     1    29
   38   572   614
   39   903   821
   40   842   856
   41   538   576
   42   264   195
   43   811   831
   44   634   543
   45   903   960
   46   690   756
   47   922   979
   48   188   155
   49   588   488
   50   655   633
16930
